NAME : amz1891.85440_82440.tour
COMMENT : Cost = 85440_82440
COMMENT : Found by LKH-AMZ [Keld Helsgaun] Sun May 11 13:32:44 2025
COMMENT : TW viol.: 0 #: 0
TYPE : TOUR
DIMENSION : 147
TOUR_SECTION
135
16
120
23
2
21
99
111
47
84
121
29
66
122
75
106
108
89
10
98
147
33
68
87
46
34
100
22
116
56
137
42
48
27
125
93
109
49
92
78
51
50
91
32
30
129
38
52
35
5
101
39
88
142
55
15
134
133
132
144
76
4
96
36
41
57
90
58
103
138
79
105
80
114
19
123
124
128
31
145
6
107
43
131
65
61
110
26
71
1
64
18
53
139
119
24
130
127
20
45
97
62
104
8
70
146
67
126
37
28
13
54
44
11
3
85
136
118
25
7
40
140
82
115
74
102
12
143
81
77
113
60
94
17
59
112
83
63
9
14
73
117
95
141
69
72
86
-1
EOF
